
Gurobi 7.5.2 (win64, Python) logging started 02/02/18 13:35:33

Academic license - for non-commercial use only

Gurobi 7.5.2 (win64, Python) logging started 02/20/18 15:49:44

Academic license - for non-commercial use only

Gurobi 7.5.2 (win64, Python) logging started 02/20/18 18:23:26

Academic license - for non-commercial use only

Gurobi 7.5.2 (win64, Python) logging started 02/21/18 12:13:02

Academic license - for non-commercial use only

Gurobi 7.5.2 (win64, Python) logging started 02/22/18 09:49:54

Academic license - for non-commercial use only

Gurobi 7.5.2 (win64, Python) logging started 02/26/18 10:43:12

Academic license - for non-commercial use only

Gurobi 7.5.2 (win64, Python) logging started 02/28/18 18:50:06

Academic license - for non-commercial use only

Gurobi 7.5.2 (win64, Python) logging started 03/07/18 10:52:04

Academic license - for non-commercial use only

Gurobi 7.5.2 (win64, Python) logging started 03/09/18 17:54:37


Gurobi 7.5.2 (win64, Python) logging started 03/12/18 13:15:08


Gurobi 7.5.2 (win64, Python) logging started 03/12/18 13:50:55

Academic license - for non-commercial use only
